K-Points
 0
Monkhorst Pack
 4  3  2 
 0  0  0
