K-Points
 0
Monkhorst Pack
 2  4  3 
 0  0  0
